language ESSENCE' 1.0
letting values be [[2, 1, 6, 0, 3, 8, 7, 5, 9], [5, 0, 9, 2, 6, 7, 0, 4, 0], [0, 0, 0, 5, 0, 0, 0, 6, 0], [3, 0, 2, 1, 0, 4, 0, 9, 6], [1, 6, 0, 9, 0, 2, 8, 0, 0], [9, 5, 0, 3, 0, 0, 2, 1, 4], [8, 4, 3, 0, 2, 0, 9, 7, 5], [6, 2, 1, 7, 9, 5, 0, 0, 0], [0, 0, 5, 0, 4, 3, 6, 2, 1]]